NAME : tsp_145_sol.txt
COMMENT : OR-Tools Guided Local Search
TYPE : TOUR
DIMENSION : 50
COST : 5460
STATUS : ROUTING_SUCCESS
GAP : 0.00% (Reference Solution)
TOUR_SECTION
1
12
37
9
3
27
31
25
14
35
7
20
50
39
30
46
49
28
38
15
44
16
2
43
8
42
45
29
40
22
4
13
5
33
48
26
36
11
47
24
17
18
6
34
21
10
32
41
19
23
-1
